parte1/mn22.dat
data;
set V := 1 2 3;
set U := 1 2 3 4 5 6;
set E := (1,1) (1,2) (2,3) (2,4) (2,5) (3,2) (3,4) (3,6);

param K := 2;
param c [1,1] 1 [1,2] 1 [2,3] 1 [2,4] 1 [2,5] 1 [3,2] 5 [3,4] 1 [3,6] 1;
end;